V_400_4.txt

VEHICLE     CAPACITY  LOCATIONS  CUSTOMER  OPTIONS  PRIORITIES  NUMTYPS
10		150		385		400		608		3		4

CUSTOMER  DEMAND
0	 18
1	 14
2	 14
3	 17
4	 18
5	 16
6	 12
7	 12
8	 11
9	 16
10	 15
11	 13
12	 15
13	 11
14	 11
15	 16
16	 14
17	 19
18	 20
19	 17
20	 14
21	 15
22	 14
23	 12
24	 18
25	 11
26	 11
27	 19
28	 14
29	 18
30	 14
31	 20
32	 19
33	 14
34	 10
35	 13
36	 20
37	 13
38	 15
39	 13
40	 13
41	 16
42	 10
43	 18
44	 12
45	 13
46	 15
47	 19
48	 11
49	 17
50	 18
51	 15
52	 10
53	 12
54	 12
55	 19
56	 16
57	 20
58	 16
59	 14
60	 16
61	 19
62	 17
63	 19
64	 12
65	 20
66	 13
67	 17
68	 19
69	 18
70	 10
71	 16
72	 18
73	 12
74	 20
75	 20
76	 15
77	 11
78	 10
79	 19
80	 16
81	 11
82	 13
83	 20
84	 11
85	 15
86	 12
87	 20
88	 12
89	 11
90	 20
91	 13
92	 15
93	 18
94	 12
95	 18
96	 18
97	 18
98	 19
99	 13
100	 19
101	 14
102	 19
103	 12
104	 11
105	 16
106	 12
107	 10
108	 10
109	 17
110	 17
111	 16
112	 18
113	 15
114	 14
115	 12
116	 14
117	 20
118	 17
119	 14
120	 11
121	 16
122	 18
123	 16
124	 19
125	 17
126	 18
127	 15
128	 11
129	 13
130	 18
131	 14
132	 11
133	 13
134	 12
135	 20
136	 14
137	 18
138	 15
139	 20
140	 10
141	 12
142	 13
143	 18
144	 20
145	 14
146	 16
147	 20
148	 19
149	 15
150	 10
151	 13
152	 16
153	 16
154	 15
155	 15
156	 12
157	 15
158	 10
159	 11
160	 12
161	 14
162	 16
163	 11
164	 17
165	 14
166	 13
167	 20
168	 15
169	 10
170	 17
171	 15
172	 11
173	 11
174	 14
175	 19
176	 20
177	 11
178	 10
179	 14
180	 15
181	 12
182	 14
183	 20
184	 10
185	 14
186	 18
187	 10
188	 17
189	 18
190	 16
191	 14
192	 12
193	 15
194	 12
195	 16
196	 10
197	 11
198	 14
199	 11
200	 15
201	 14
202	 19
203	 15
204	 10
205	 19
206	 19
207	 17
208	 15
209	 11
210	 17
211	 12
212	 19
213	 13
214	 16
215	 18
216	 11
217	 10
218	 20
219	 10
220	 14
221	 11
222	 16
223	 14
224	 16
225	 13
226	 17
227	 17
228	 11
229	 15
230	 20
231	 13
232	 17
233	 20
234	 17
235	 12
236	 14
237	 11
238	 14
239	 12
240	 12
241	 18
242	 11
243	 16
244	 14
245	 15
246	 19
247	 19
248	 20
249	 19
250	 19
251	 14
252	 10
253	 19
254	 12
255	 11
256	 18
257	 19
258	 18
259	 18
260	 15
261	 18
262	 12
263	 12
264	 19
265	 20
266	 11
267	 12
268	 20
269	 10
270	 20
271	 13
272	 11
273	 10
274	 12
275	 20
276	 11
277	 17
278	 11
279	 14
280	 16
281	 18
282	 19
283	 13
284	 10
285	 11
286	 10
287	 14
288	 10
289	 17
290	 11
291	 11
292	 11
293	 13
294	 13
295	 20
296	 16
297	 10
298	 14
299	 14
300	 13
301	 11
302	 18
303	 16
304	 13
305	 11
306	 15
307	 17
308	 19
309	 10
310	 11
311	 13
312	 18
313	 11
314	 17
315	 14
316	 16
317	 20
318	 20
319	 20
320	 13
321	 10
322	 19
323	 15
324	 18
325	 18
326	 15
327	 16
328	 17
329	 11
330	 15
331	 14
332	 18
333	 11
334	 12
335	 12
336	 20
337	 18
338	 17
339	 17
340	 16
341	 11
342	 14
343	 11
344	 13
345	 10
346	 12
347	 17
348	 16
349	 15
350	 14
351	 10
352	 14
353	 13
354	 20
355	 20
356	 13
357	 17
358	 13
359	 11
360	 11
361	 18
362	 10
363	 12
364	 15
365	 20
366	 20
367	 17
368	 18
369	 16
370	 11
371	 20
372	 13
373	 15
374	 15
375	 13
376	 17
377	 16
378	 16
379	 19
380	 14
381	 19
382	 13
383	 15
384	 20
385	 17
386	 13
387	 16
388	 16
389	 13
390	 13
391	 13
392	 20
393	 10
394	 15
395	 16
396	 18
397	 20
398	 16
399	 10

LOCATION  XCOORD  YCOORD  CAP  READY  DUE  TYP  SERVICETIME
0		33		21		-1		0		720	 0		0
1		3		38		-1		119		239		 2		6
2		40		44		-1		0		360		 2		6
3		14		29		-1		369		489		 2		6
4		50		43		-1		408		648		 2		6
5		1		37		-1		87		327		 2		6
6		48		3		-1		407		527		 2		6
7		26		46		-1		360		720		 2		6
8		22		2		-1		360		720		 2		6
9		39		15		-1		0		360		 2		6
10		14		35		-1		132		372		 2		6
11		35		9		-1		170		410		 2		6
12		43		36		-1		81		201		 2		6
13		13		8		-1		477		717		 2		6
14		35		11		-1		360		720		 2		6
15		29		27		-1		443		563		 2		6
16		36		25		-1		0		360		 2		6
17		32		26		-1		33		153		 2		6
18		22		11		-1		156		396		 2		6
19		45		26		-1		360		720		 2		6
20		35		8		-1		408		528		 2		6
21		50		21		-1		360		720		 2		6
22		13		28		-1		48		168		 2		6
23		6		4		-1		360		720		 2		6
24		50		30		-1		214		334		 2		6
25		3		39		-1		360		720		 2		6
26		20		10		-1		391		511		 2		6
27		10		7		-1		360		720		 2		6
28		7		47		-1		579		699		 2		6
29		15		42		-1		360		720		 2		6
30		5		24		-1		131		251		 2		6
31		3		10		-1		207		447		 2		6
32		30		5		-1		0		120		 2		6
33		27		16		-1		188		308		 2		6
34		41		39		-1		360		720		 2		6
35		39		40		-1		433		673		 2		6
36		36		45		-1		146		386		 2		6
37		35		25		-1		179		419		 2		6
38		34		25		-1		0		360		 2		6
39		43		30		-1		500		620		 2		6
40		2		50		-1		507		627		 2		6
41		30		42		-1		0		360		 2		6
42		17		12		-1		416		536		 2		6
43		50		24		-1		0		360		 2		6
44		41		44		-1		99		219		 2		6
45		49		43		-1		473		593		 2		6
46		29		13		-1		0		360		 2		6
47		30		19		-1		360		720		 2		6
48		21		36		-1		327		567		 2		6
49		28		2		-1		360		720		 2		6
50		30		15		-1		360		720		 2		6
51		3		2		-1		474		594		 2		6
52		49		23		-1		5		125		 2		6
53		21		7		-1		0		360		 2		6
54		45		48		-1		0		360		 2		6
55		10		46		-1		445		565		 2		6
56		22		35		-1		240		360		 2		6
57		27		39		-1		0		360		 2		6
58		10		10		-1		363		483		 2		6
59		2		11		-1		470		590		 2		6
60		50		7		-1		214		334		 2		6
61		18		15		-1		510		630		 2		6
62		2		9		-1		466		586		 2		6
63		21		10		-1		97		217		 2		6
64		19		42		-1		500		620		 2		6
65		14		18		-1		0		360		 2		6
66		30		32		-1		0		360		 2		6
67		45		29		-1		538		658		 2		6
68		38		26		-1		0		360		 2		6
69		37		15		-1		378		618		 2		6
70		37		23		-1		30		270		 2		6
71		43		16		-1		360		720		 2		6
72		14		21		-1		290		530		 2		6
73		29		21		-1		111		231		 2		6
74		28		2		-1		475		595		 2		6
75		45		18		-1		360		720		 2		6
76		23		25		-1		87		327		 2		6
77		5		5		-1		64		304		 2		6
78		50		46		-1		458		578		 2		6
79		39		14		-1		0		360		 2		6
80		23		41		-1		115		355		 2		6
81		44		8		-1		360		720		 2		6
82		27		49		-1		0		360		 2		6
83		13		41		-1		0		360		 2		6
84		8		32		-1		360		720		 2		6
85		39		40		-1		325		565		 2		6
86		28		15		-1		360		720		 2		6
87		48		49		-1		360		720		 2		6
88		31		38		-1		461		581		 2		6
89		49		30		-1		360		720		 2		6
90		18		40		-1		74		314		 2		6
91		37		36		-1		166		286		 2		6
92		35		7		-1		360		720		 2		6
93		28		40		-1		0		360		 2		6
94		9		2		-1		360		720		 2		6
95		8		33		-1		206		326		 2		6
96		20		43		-1		0		360		 2		6
97		24		23		-1		475		715		 2		6
98		37		41		-1		247		487		 2		6
99		28		35		-1		294		534		 2		6
100		42		14		-1		360		720		 2		6
101		39		18		-1		360		720		 2		6
102		45		14		-1		496		616		 2		6
103		6		8		-1		74		194		 2		6
104		40		22		-1		0		360		 2		6
105		39		32		-1		118		358		 2		6
106		12		17		-1		212		332		 2		6
107		42		6		-1		376		616		 2		6
108		50		34		-1		360		720		 2		6
109		25		31		-1		151		391		 2		6
110		1		18		-1		0		360		 2		6
111		22		9		-1		161		281		 2		6
112		32		10		-1		517		637		 2		6
113		31		47		-1		98		218		 2		6
114		32		46		-1		457		697		 2		6
115		16		40		-1		409		649		 2		6
116		2		27		-1		360		720		 2		6
117		2		16		-1		360		720		 2		6
118		2		24		-1		360		720		 2		6
119		6		3		-1		506		626		 2		6
120		43		31		-1		360		720		 2		6
121		32		17		-1		360		720		 2		6
122		9		29		-1		31		151		 2		6
123		4		38		-1		360		720		 2		6
124		6		25		-1		50		170		 2		6
125		45		42		-1		360		720		 2		6
126		12		10		-1		493		613		 2		6
127		12		4		-1		0		360		 2		6
128		29		21		-1		110		230		 2		6
129		19		50		-1		0		360		 2		6
130		28		8		-1		0		360		 2		6
131		42		41		-1		543		663		 2		6
132		48		10		-1		75		195		 2		6
133		43		33		-1		379		619		 2		6
134		21		16		-1		360		720		 2		6
135		33		32		-1		114		234		 2		6
136		31		8		-1		42		162		 2		6
137		7		17		-1		466		586		 2		6
138		19		7		-1		360		720		 2		6
139		22		41		-1		486		606		 2		6
140		19		6		-1		360		720		 2		6
141		9		35		-1		360		720		 2		6
142		2		21		-1		471		591		 2		6
143		3		26		-1		0		360		 2		6
144		2		7		-1		492		612		 2		6
145		46		22		-1		360		720		 2		6
146		48		2		-1		18		138		 2		6
147		20		43		-1		569		689		 2		6
148		32		17		-1		465		585		 2		6
149		2		48		-1		0		360		 2		6
150		2		22		-1		360		720		 2		6
151		1		44		-1		58		178		 2		6
152		33		30		-1		70		190		 2		6
153		30		19		-1		133		373		 2		6
154		40		28		-1		77		197		 2		6
155		45		47		-1		115		235		 2		6
156		46		33		-1		103		223		 2		6
157		20		45		-1		360		720		 2		6
158		41		43		-1		566		686		 2		6
159		43		2		-1		223		343		 2		6
160		8		41		-1		360		720		 2		6
161		43		43		-1		113		233		 2		6
162		38		15		-1		467		707		 2		6
163		12		11		-1		30		150		 2		6
164		28		22		-1		191		311		 2		6
165		37		9		-1		421		661		 2		6
166		16		25		-1		545		665		 2		6
167		22		37		-1		121		241		 2		6
168		26		26		-1		360		720		 2		6
169		11		5		-1		570		690		 2		6
170		48		47		-1		360		720		 2		6
171		24		16		-1		410		530		 2		6
172		4		27		-1		360		720		 2		6
173		19		43		-1		98		218		 2		6
174		15		1		-1		360		720		 2		6
175		32		16		-1		314		554		 2		6
176		38		26		-1		360		720		 2		6
177		41		18		-1		360		720		 2		6
178		25		47		-1		360		720		 2		6
179		43		4		-1		224		344		 2		6
180		41		48		-1		545		665		 2		6
181		28		44		-1		412		652		 2		6
182		25		49		-1		597		717		 2		6
183		34		46		-1		395		515		 2		6
184		6		36		-1		38		158		 2		6
185		2		45		-1		261		501		 2		6
186		33		19		-1		106		226		 2		6
187		26		33		-1		482		602		 2		6
188		19		7		-1		433		553		 2		6
189		17		26		-1		73		313		 2		6
190		36		48		-1		360		720		 2		6
191		18		29		-1		206		446		 2		6
192		48		42		-1		360		720		 2		6
193		24		21		-1		360		720		 2		6
194		19		16		-1		0		360		 2		6
195		29		27		-1		58		178		 2		6
196		28		19		-1		157		397		 2		6
197		14		42		-1		360		720		 2		6
198		16		18		-1		533		653		 2		6
199		9		44		-1		524		644		 2		6
200		32		17		-1		360		720		 2		6
201		12		18		-1		483		603		 2		6
202		15		14		-1		58		178		 2		6
203		29		3		-1		383		623		 2		6
204		46		1		-1		29		149		 2		6
205		22		27		-1		234		354		 2		6
206		34		47		-1		360		720		 2		6
207		44		36		-1		360		720		 2		6
208		39		49		-1		68		188		 2		6
209		13		4		-1		486		606		 2		6
210		34		18		-1		0		360		 2		6
211		27		11		-1		430		670		 2		6
212		37		38		-1		360		720		 2		6
213		33		21		-1		0		360		 2		6
214		43		23		-1		0		360		 2		6
215		42		36		-1		360		720		 2		6
216		3		16		-1		148		268		 2		6
217		14		43		-1		448		688		 2		6
218		30		2		-1		395		515		 2		6
219		7		2		-1		360		720		 2		6
220		19		38		-1		281		521		 2		6
221		4		35		-1		229		349		 2		6
222		21		28		-1		360		720		 2		6
223		28		44		-1		360		720		 2		6
224		6		8		-1		0		360		 2		6
225		34		2		-1		181		421		 2		6
226		27		16		-1		75		315		 2		6
227		23		45		-1		0		360		 2		6
228		33		4		-1		0		360		 2		6
229		35		1		-1		429		549		 2		6
230		46		26		-1		0		360		 2		6
231		31		20		-1		515		635		 2		6
232		7		32		-1		153		393		 2		6
233		33		4		-1		360		720		 2		6
234		30		43		-1		235		475		 2		6
235		49		10		-1		542		662		 2		6
236		13		15		-1		40		160		 2		6
237		41		18		-1		204		324		 2		6
238		46		21		-1		0		360		 2		6
239		32		40		-1		360		720		 2		6
240		15		12		-1		360		720		 2		6
241		7		27		-1		80		200		 2		6
242		34		25		-1		516		636		 2		6
243		1		25		-1		227		467		 2		6
244		17		49		-1		179		419		 2		6
245		26		15		-1		553		673		 2		6
246		45		21		-1		360		720		 2		6
247		36		26		-1		0		360		 2		6
248		14		17		-1		0		360		 2		6
249		48		46		-1		0		360		 2		6
250		42		1		-1		171		291		 2		6
251		17		40		-1		360		720		 2		6
252		47		33		-1		55		295		 2		6
253		28		7		-1		360		720		 2		6
254		26		36		-1		426		546		 2		6
255		27		9		-1		134		374		 2		6
256		27		47		-1		367		487		 2		6
257		13		49		-1		217		337		 2		6
258		11		5		-1		7		247		 2		6
259		18		40		-1		178		418		 2		6
260		44		41		-1		360		720		 2		6
261		22		15		-1		482		602		 2		6
262		7		9		-1		360		720		 2		6
263		32		13		-1		102		222		 2		6
264		41		1		-1		355		595		 2		6
265		10		3		-1		0		360		 2		6
266		28		48		-1		12		132		 2		6
267		43		17		-1		425		545		 2		6
268		22		47		-1		0		360		 2		6
269		27		8		-1		426		546		 2		6
270		6		24		-1		360		720		 2		6
271		27		47		-1		407		647		 2		6
272		11		31		-1		360		720		 2		6
273		48		8		-1		233		353		 2		6
274		35		34		-1		360		720		 2		6
275		21		22		-1		360		720		 2		6
276		14		21		-1		361		481		 2		6
277		31		2		-1		513		633		 2		6
278		33		34		-1		0		360		 2		6
279		43		41		-1		0		360		 2		6
280		3		42		-1		412		532		 2		6
281		19		35		-1		128		248		 2		6
282		32		28		-1		360		720		 2		6
283		46		45		-1		0		360		 2		6
284		41		45		-1		576		696		 2		6
285		25		49		-1		121		361		 2		6
286		33		14		-1		360		720		 2		6
287		6		14		-1		560		680		 2		6
288		47		29		-1		360		720		 2		6
289		27		25		-1		0		360		 2		6
290		39		39		-1		0		360		 2		6
291		30		27		-1		447		567		 2		6
292		46		41		-1		85		205		 2		6
293		19		20		-1		131		251		 2		6
294		20		39		-1		213		333		 2		6
295		32		32		-1		0		360		 2		6
296		11		43		-1		360		720		 2		6
297		46		39		-1		44		284		 2		6
298		38		12		-1		19		139		 2		6
299		7		24		-1		360		720		 2		6
300		16		38		-1		278		518		 2		6
301		6		12		-1		511		631		 2		6
302		43		40		-1		190		310		 2		6
303		12		1		-1		477		597		 2		6
304		22		38		-1		185		305		 2		6
305		33		9		5		116		596		 1		4
306		30		44		5		31		511		 1		4
307		29		36		4		0		720		 1		4
308		45		37		3		0		720		 1		4
309		41		24		3		0		720		 1		4
310		32		37		5		146		626		 1		4
311		6		39		5		219		699		 1		4
312		27		23		5		31		511		 1		4
313		22		41		5		0		720		 1		4
314		29		8		3		0		720		 1		4
315		33		19		5		0		720		 1		4
316		39		45		5		223		703		 1		4
317		11		36		5		0		720		 1		4
318		34		45		5		0		720		 1		4
319		41		20		4		0		720		 1		4
320		26		45		5		91		571		 1		4
321		32		45		5		106		586		 1		4
322		16		39		3		0		720		 1		4
323		28		41		3		0		720		 1		4
324		7		38		5		92		572		 1		4
325		30		43		5		113		593		 1		4
326		33		20		5		108		588		 1		4
327		45		36		4		0		720		 1		4
328		16		21		4		0		720		 1		4
329		41		42		5		28		508		 1		4
330		43		7		5		184		664		 1		4
331		10		39		4		0		720		 1		4
332		41		39		3		0		720		 1		4
333		40		20		3		0		720		 1		4
334		31		28		5		73		553		 1		4
335		45		11		3		0		720		 1		4
336		37		41		5		140		620		 1		4
337		39		17		4		0		720		 1		4
338		30		12		5		0		720		 1		4
339		33		26		5		156		636		 1		4
340		35		9		5		80		560		 1		4
341		7		21		5		0		720		 1		4
342		39		31		5		185		665		 1		4
343		34		32		5		109		589		 1		4
344		19		16		5		140		620		 1		4
345		27		37		5		60		540		 1		4
346		29		26		4		0		720		 1		4
347		10		36		5		208		688		 1		4
348		12		38		5		58		538		 1		4
349		19		42		5		40		520		 1		4
350		42		40		5		11		491		 1		4
351		13		44		3		0		720		 1		4
352		16		37		5		0		720		 1		4
353		5		35		4		0		720		 1		4
354		37		39		5		127		607		 1		4
355		24		14		5		87		567		 1		4
356		29		28		5		0		720		 1		4
357		38		10		4		0		720		 1		4
358		20		10		3		0		720		 1		4
359		18		19		5		0		720		 1		4
360		9		35		4		0		720		 1		4
361		19		5		5		55		535		 1		4
362		8		29		5		196		676		 1		4
363		11		45		4		0		720		 1		4
364		32		43		5		76		556		 1		4
365		7		18		3		0		720		 1		4
366		24		7		5		65		545		 1		4
367		45		15		5		195		675		 1		4
368		38		28		5		172		652		 1		4
369		23		24		5		0		720		 1		4
370		5		26		3		0		720		 1		4
371		6		32		5		140		620		 1		4
372		8		28		5		97		577		 1		4
373		26		44		4		0		720		 1		4
374		33		15		4		0		720		 1		4
375		11		31		3		0		720		 1		4
376		21		40		3		0		720		 1		4
377		41		42		5		0		720		 1		4
378		5		21		3		0		720		 1		4
379		27		26		5		135		615		 1		4
380		38		28		5		144		624		 1		4
381		10		7		4		0		720		 1		4
382		10		42		4		0		720		 1		4
383		33		41		5		203		683		 1		4
384		45		8		5		132		612		 1		4
OPTION  LOCATION  CUSTOMER  PRIO  SERVICETIME   COST
0		314		0		0		2		0
1		331		1		0		2		0
2		369		2		0		2		0
3		315		3		0		2		0
4		323		4		0		2		0
5		313		5		0		2		0
6		328		6		0		2		0
7		321		7		0		2		0
8		338		8		0		2		0
9		315		9		0		2		0
10		343		10		0		2		0
11		311		11		0		2		0
12		371		12		0		2		0
13		335		13		0		2		0
14		336		14		0		2		0
15		306		15		0		2		0
16		340		16		0		2		0
17		350		17		0		2		0
18		370		18		0		2		0
19		365		19		0		2		0
20		380		20		0		2		0
21		358		21		0		2		0
22		349		22		0		2		0
23		315		23		0		2		0
24		305		24		0		2		0
25		322		25		0		2		0
26		362		26		0		2		0
27		365		27		0		2		0
28		375		28		0		2		0
29		342		29		0		2		0
30		346		30		0		2		0
31		333		31		0		2		0
32		345		32		0		2		0
33		313		33		0		2		0
34		313		34		0		2		0
35		309		35		0		2		0
36		322		36		0		2		0
37		382		37		0		2		0
38		328		38		0		2		0
39		333		39		0		2		0
40		359		40		0		2		0
41		331		41		0		2		0
42		382		42		0		2		0
43		373		43		0		2		0
44		354		44		0		2		0
45		306		45		0		2		0
46		331		46		0		2		0
47		332		47		0		2		0
48		319		48		0		2		0
49		354		49		0		2		0
50		326		50		0		2		0
51		330		51		0		2		0
52		372		52		0		2		0
53		360		53		0		2		0
54		307		54		0		2		0
55		366		55		0		2		0
56		371		56		0		2		0
57		361		57		0		2		0
58		306		58		0		2		0
59		318		59		0		2		0
60		375		60		0		2		0
61		330		61		0		2		0
62		378		62		0		2		0
63		310		63		0		2		0
64		341		64		0		2		0
65		316		65		0		2		0
66		314		66		0		2		0
67		382		67		0		2		0
68		365		68		0		2		0
69		335		69		0		2		0
70		359		70		0		2		0
71		313		71		0		2		0
72		336		72		0		2		0
73		321		73		0		2		0
74		344		74		0		2		0
75		354		75		0		2		0
76		371		76		0		2		0
77		373		77		0		2		0
78		312		78		0		2		0
79		323		79		0		2		0
80		336		80		0		2		0
81		306		81		0		2		0
82		363		82		0		2		0
83		362		83		0		2		0
84		351		84		0		2		0
85		321		85		0		2		0
86		339		86		0		2		0
87		340		87		0		2		0
88		357		88		0		2		0
89		382		89		0		2		0
90		380		90		0		2		0
91		324		91		0		2		0
92		322		92		0		2		0
93		378		93		0		2		0
94		358		94		0		2		0
95		351		95		0		2		0
96		1		96		0		5		0
97		2		97		0		5		0
98		3		98		0		5		0
99		4		99		0		5		0
100		5		100		0		5		0
101		6		101		0		5		0
102		7		102		0		5		0
103		8		103		0		5		0
104		9		104		0		5		0
105		10		105		0		5		0
106		11		106		0		5		0
107		12		107		0		5		0
108		13		108		0		5		0
109		14		109		0		5		0
110		15		110		0		5		0
111		16		111		0		5		0
112		17		112		0		5		0
113		18		113		0		5		0
114		19		114		0		5		0
115		20		115		0		5		0
116		21		116		0		5		0
117		22		117		0		5		0
118		23		118		0		5		0
119		24		119		0		5		0
120		25		120		0		5		0
121		26		121		0		5		0
122		27		122		0		5		0
123		28		123		0		5		0
124		29		124		0		5		0
125		30		125		0		5		0
126		31		126		0		5		0
127		32		127		0		5		0
128		33		128		0		5		0
129		34		129		0		5		0
130		35		130		0		5		0
131		36		131		0		5		0
132		37		132		0		5		0
133		38		133		0		5		0
134		39		134		0		5		0
135		40		135		0		5		0
136		41		136		0		5		0
137		42		137		0		5		0
138		43		138		0		5		0
139		44		139		0		5		0
140		45		140		0		5		0
141		46		141		0		5		0
142		47		142		0		5		0
143		48		143		0		5		0
144		49		144		0		5		0
145		50		145		0		5		0
146		51		146		0		5		0
147		52		147		0		5		0
148		53		148		0		5		0
149		54		149		0		5		0
150		55		150		0		5		0
151		56		151		0		5		0
152		57		152		0		5		0
153		58		153		0		5		0
154		59		154		0		5		0
155		60		155		0		5		0
156		61		156		0		5		0
157		62		157		0		5		0
158		63		158		0		5		0
159		64		159		0		5		0
160		65		160		0		5		0
161		66		161		0		5		0
162		67		162		0		5		0
163		68		163		0		5		0
164		69		164		0		5		0
165		70		165		0		5		0
166		71		166		0		5		0
167		72		167		0		5		0
168		73		168		0		5		0
169		74		169		0		5		0
170		75		170		0		5		0
171		76		171		0		5		0
172		77		172		0		5		0
173		78		173		0		5		0
174		79		174		0		5		0
175		80		175		0		5		0
176		81		176		0		5		0
177		82		177		0		5		0
178		83		178		0		5		0
179		84		179		0		5		0
180		85		180		0		5		0
181		86		181		0		5		0
182		87		182		0		5		0
183		88		183		0		5		0
184		89		184		0		5		0
185		90		185		0		5		0
186		91		186		0		5		0
187		92		187		0		5		0
188		93		188		0		5		0
189		94		189		0		5		0
190		95		190		0		5		0
191		96		191		0		5		0
192		97		192		0		5		0
193		356		192		1		2		0
194		98		193		0		5		0
195		342		193		1		2		0
196		99		194		1		5		0
197		324		194		0		2		0
198		100		195		0		5		0
199		370		195		1		2		0
200		101		196		0		5		0
201		309		196		1		2		0
202		102		197		0		5		0
203		305		197		1		2		0
204		103		198		1		5		0
205		333		198		0		2		0
206		104		199		1		5		0
207		322		199		0		2		0
208		105		200		0		5		0
209		380		200		1		2		0
210		106		201		1		5		0
211		359		201		0		2		0
212		107		202		0		5		0
213		335		202		1		2		0
214		108		203		0		5		0
215		339		203		1		2		0
216		109		204		1		5		0
217		307		204		0		2		0
218		110		205		1		5		0
219		341		205		0		2		0
220		111		206		1		5		0
221		366		206		0		2		0
222		112		207		0		5		0
223		374		207		1		2		0
224		113		208		1		5		0
225		377		208		0		2		0
226		114		209		0		5		0
227		325		209		1		2		0
228		115		210		0		5		0
229		356		210		1		2		0
230		116		211		0		5		0
231		380		211		1		2		0
232		117		212		1		5		0
233		341		212		0		2		0
234		118		213		0		5		0
235		377		213		1		2		0
236		119		214		0		5		0
237		361		214		1		2		0
238		120		215		1		5		0
239		308		215		0		2		0
240		121		216		1		5		0
241		373		216		0		2		0
242		122		217		1		5		0
243		313		217		0		2		0
244		123		218		1		5		0
245		316		218		0		2		0
246		124		219		0		5		0
247		362		219		1		2		0
248		125		220		0		5		0
249		372		220		1		2		0
250		126		221		1		5		0
251		308		221		0		2		0
252		127		222		0		5		0
253		344		222		1		2		0
254		128		223		1		5		0
255		326		223		0		2		0
256		129		224		1		5		0
257		363		224		0		2		0
258		130		225		1		5		0
259		338		225		0		2		0
260		131		226		0		5		0
261		381		226		1		2		0
262		132		227		0		5		0
263		333		227		1		2		0
264		133		228		0		5		0
265		342		228		1		2		0
266		134		229		0		5		0
267		340		229		1		2		0
268		135		230		0		5		0
269		311		230		1		2		0
270		136		231		0		5		0
271		326		231		1		2		0
272		137		232		1		5		0
273		370		232		0		2		0
274		138		233		1		5		0
275		363		233		0		2		0
276		139		234		1		5		0
277		316		234		0		2		0
278		140		235		1		5		0
279		358		235		0		2		0
280		141		236		1		5		0
281		347		236		0		2		0
282		142		237		1		5		0
283		335		237		0		2		0
284		143		238		0		5		0
285		327		238		1		2		0
286		144		239		1		5		0
287		377		239		0		2		0
288		145		240		1		5		0
289		319		240		0		2		0
290		146		241		1		5		0
291		330		241		0		2		0
292		147		242		1		5		0
293		313		242		0		2		0
294		148		243		0		5		0
295		358		243		1		2		0
296		149		244		0		5		0
297		319		244		1		2		0
298		150		245		1		5		0
299		346		245		0		2		0
300		151		246		0		5		0
301		353		246		1		2		0
302		152		247		1		5		0
303		357		247		0		2		0
304		153		248		1		5		0
305		349		248		0		2		0
306		154		249		0		5		0
307		343		249		1		2		0
308		155		250		0		5		0
309		353		250		1		2		0
310		156		251		0		5		0
311		331		251		1		2		0
312		157		252		0		5		0
313		369		252		1		2		0
314		158		253		1		5		0
315		377		253		0		2		0
316		159		254		1		5		0
317		384		254		0		2		0
318		160		255		0		5		0
319		309		255		1		2		0
320		161		256		0		5		0
321		376		256		1		2		0
322		162		257		1		5		0
323		319		257		0		2		0
324		163		258		0		5		0
325		365		258		1		2		0
326		164		259		0		5		0
327		326		259		1		2		0
328		165		260		0		5		0
329		374		260		1		2		0
330		166		261		0		5		0
331		365		261		1		2		0
332		167		262		0		5		0
333		360		262		1		2		0
334		168		263		1		5		0
335		323		263		0		2		0
336		169		264		1		5		0
337		366		264		0		2		0
338		170		265		1		5		0
339		308		265		0		2		0
340		171		266		0		5		0
341		359		266		1		2		0
342		172		267		1		5		0
343		372		267		0		2		0
344		173		268		1		5		0
345		313		268		0		2		0
346		174		269		1		5		0
347		344		269		0		2		0
348		175		270		1		5		0
349		330		270		0		2		0
350		176		271		1		5		0
351		378		271		0		2		0
352		177		272		0		5		0
353		309		272		1		2		0
354		178		273		1		5		0
355		306		273		0		2		0
356		179		274		0		5		0
357		384		274		1		2		0
358		180		275		1		5		0
359		325		275		0		2		0
360		181		276		1		5		0
361		373		276		0		2		0
362		182		277		0		5		0
363		321		277		1		2		0
364		183		278		1		5		0
365		325		278		0		2		0
366		184		279		0		5		0
367		311		279		1		2		0
368		185		280		1		5		0
369		382		280		0		2		0
370		186		281		0		5		0
371		331		281		1		2		0
372		187		282		1		5		0
373		379		282		0		2		0
374		188		283		1		5		0
375		355		283		0		2		0
376		189		284		1		5		0
377		384		284		0		2		0
378		190		285		1		5		0
379		321		285		0		2		0
380		191		286		0		5		0
381		310		286		1		2		0
382		192		287		0		5		0
383		338		287		1		2		0
384		193		288		1		5		0
385		336		288		0		2		0
386		194		289		1		5		0
387		375		289		0		2		0
388		195		290		0		5		0
389		339		290		1		2		0
390		196		291		0		5		0
391		315		291		1		2		0
392		197		292		0		5		0
393		348		292		1		2		0
394		198		293		0		5		0
395		367		293		1		2		0
396		199		294		0		5		0
397		382		294		1		2		0
398		200		295		1		5		0
399		316		295		0		2		0
400		201		296		1		5		0
401		384		296		0		2		0
402		202		297		0		5		0
403		328		297		1		2		0
404		203		298		1		5		0
405		340		298		0		2		0
406		204		299		1		5		0
407		381		299		0		2		0
408		205		300		0		5		0
409		332		300		1		2		0
410		206		301		1		5		0
411		318		301		0		2		0
412		207		302		1		5		0
413		375		302		0		2		0
414		208		303		1		5		0
415		308		303		0		2		0
416		209		304		0		5		0
417		366		304		1		2		0
418		210		305		1		5		0
419		326		305		0		2		0
420		211		306		1		5		0
421		358		306		0		2		0
422		212		307		0		5		0
423		310		307		1		2		0
424		213		308		0		5		0
425		339		308		1		2		0
426		214		309		1		5		0
427		348		309		0		2		0
428		215		310		1		5		0
429		377		310		0		2		0
430		216		311		1		5		0
431		378		311		0		2		0
432		217		312		1		5		0
433		319		312		0		2		0
434		218		313		0		5		0
435		338		313		1		2		0
436		219		314		1		5		0
437		309		314		0		2		0
438		220		315		0		5		0
439		309		315		1		2		0
440		221		316		1		5		0
441		311		316		0		2		0
442		222		317		0		5		0
443		352		317		1		2		0
444		223		318		0		5		0
445		381		318		1		2		0
446		224		319		1		5		0
447		361		319		0		2		0
448		225		320		1		5		0
449		370		320		0		2		0
450		226		321		0		5		0
451		338		321		1		2		0
452		227		322		0		5		0
453		376		322		1		2		0
454		228		323		0		5		0
455		307		323		1		2		0
456		229		324		0		5		0
457		373		324		1		2		0
458		230		325		0		5		0
459		319		325		1		2		0
460		231		326		1		5		0
461		339		326		0		2		0
462		232		327		0		5		0
463		372		327		1		2		0
464		233		328		1		5		0
465		315		328		0		2		0
466		234		329		0		5		0
467		364		329		1		2		0
468		235		330		0		5		0
469		361		330		1		2		0
470		236		331		0		5		0
471		341		331		1		2		0
472		237		332		1		5		0
473		367		332		0		2		0
474		238		333		0		5		0
475		337		333		1		2		0
476		239		334		1		5		0
477		366		334		0		2		0
478		240		335		1		5		0
479		306		335		0		2		0
480		241		336		0		5		0
481		370		336		1		2		0
482		242		337		0		5		0
483		315		337		1		2		0
484		243		338		0		5		0
485		372		338		1		2		0
486		244		339		0		5		0
487		348		339		1		2		0
488		245		340		0		5		0
489		314		340		1		2		0
490		246		341		0		5		0
491		333		341		1		2		0
492		247		342		1		5		0
493		339		342		0		2		0
494		248		343		1		5		0
495		381		343		0		2		0
496		249		344		1		5		0
497		308		344		0		2		0
498		250		345		0		5		0
499		335		345		1		2		0
500		251		346		1		5		0
501		349		346		0		2		0
502		252		347		0		5		0
503		364		347		1		2		0
504		253		348		1		5		0
505		355		348		0		2		0
506		254		349		1		5		0
507		310		349		0		2		0
508		255		350		0		5		0
509		366		350		1		2		0
510		256		351		0		5		0
511		371		351		1		2		0
512		257		352		1		5		0
513		351		352		0		2		0
514		258		353		0		5		0
515		357		353		1		2		0
516		259		354		1		5		0
517		376		354		0		2		0
518		260		355		1		5		0
519		377		355		0		2		0
520		261		356		0		5		0
521		358		356		1		2		0
522		262		357		0		5		0
523		371		357		1		2		0
524		263		358		0		5		0
525		354		358		1		2		0
526		264		359		1		5		0
527		371		359		0		2		0
528		265		360		1		5		0
529		361		360		0		2		0
530		266		361		1		5		0
531		311		361		0		2		0
532		267		362		0		5		0
533		333		362		1		2		0
534		268		363		1		5		0
535		312		363		0		2		0
536		269		364		0		5		0
537		355		364		1		2		0
538		270		365		1		5		0
539		328		365		0		2		0
540		271		366		0		5		0
541		337		366		1		2		0
542		272		367		0		5		0
543		317		367		1		2		0
544		273		368		1		5		0
545		335		368		0		2		0
546		274		369		1		5		0
547		369		369		0		2		0
548		275		370		1		5		0
549		349		370		0		2		0
550		276		371		1		5		0
551		319		371		0		2		0
552		277		372		0		5		0
553		368		372		1		2		0
554		278		373		1		5		0
555		351		373		0		2		0
556		279		374		1		5		0
557		377		374		0		2		0
558		280		375		1		5		0
559		331		375		0		2		0
560		281		376		0		5		0
561		364		376		1		2		0
562		282		377		0		5		0
563		356		377		1		2		0
564		283		378		1		5		0
565		350		378		0		2		0
566		284		379		1		5		0
567		329		379		0		2		0
568		285		380		0		5		0
569		321		380		1		2		0
570		286		381		0		5		0
571		305		381		1		2		0
572		287		382		0		5		0
573		370		382		1		2		0
574		288		383		0		5		0
575		353		383		1		2		0
576		289		384		0		5		0
577		346		384		1		2		0
578		290		385		0		5		0
579		340		385		1		2		0
580		291		386		1		5		0
581		332		386		0		2		0
582		292		387		1		5		0
583		329		387		0		2		0
584		293		388		0		5		0
585		373		388		1		2		0
586		294		389		1		5		0
587		313		389		0		2		0
588		295		390		0		5		0
589		334		390		1		2		0
590		296		391		0		5		0
591		377		391		1		2		0
592		297		392		0		5		0
593		321		392		1		2		0
594		298		393		1		5		0
595		340		393		0		2		0
596		299		394		1		5		0
597		321		394		0		2		0
598		300		395		1		5		0
599		317		395		0		2		0
600		301		396		0		5		0
601		318		396		1		2		0
602		302		397		0		5		0
603		342		397		1		2		0
604		303		398		0		5		0
605		344		398		1		2		0
606		304		399		1		5		0
607		322		399		0		2		0
